16
0 1 10
0 2 4
0 3 5
0 4 17
0 5 12
0 6 12
0 7 19
0 8 17
0 9 18
0 11 19
0 13 11
0 14 11
0 15 20
1 0 5
1 2 18
1 3 6
1 4 18
1 5 6
1 6 8
1 7 8
1 8 20
1 10 12
1 11 1
1 12 17
1 13 4
1 14 8
1 15 16
2 0 19
2 1 18
2 3 10
2 4 6
2 5 10
2 6 1
2 7 5
2 8 16
2 9 18
2 10 3
2 11 14
2 12 6
2 13 10
2 14 6
2 15 20
3 0 7
3 1 15
3 2 8
3 4 16
3 6 3
3 7 13
3 8 7
3 9 19
3 11 6
3 14 18
3 15 8
4 0 5
4 1 18
4 2 9
4 3 5
4 5 18
4 6 14
4 7 13
4 9 20
4 10 5
4 11 4
4 12 16
4 13 19
4 14 11
4 15 14
5 0 6
5 1 17
5 4 7
5 6 16
5 8 9
5 9 3
5 11 17
5 12 18
5 13 16
5 14 5
5 15 14
6 0 7
6 1 16
6 2 19
6 5 17
6 7 19
6 8 12
6 12 12
6 13 16
6 15 9
7 0 15
7 1 1
7 2 16
7 3 15
7 4 1
7 5 19
7 6 5
7 8 7
7 9 20
7 10 11
7 11 20
7 12 12
7 13 10
7 15 19
8 1 20
8 2 1
8 3 6
8 4 1
8 9 4
8 11 4
8 13 20
8 14 7
8 15 15
9 1 12
9 2 4
9 3 5
9 5 4
9 8 5
9 10 2
9 11 6
9 12 6
9 14 18
10 0 17
10 1 6
10 2 12
10 5 12
10 6 15
10 7 4
10 8 20
10 11 8
10 12 7
10 13 16
10 14 4
11 0 7
11 1 4
11 2 8
11 3 6
11 4 4
11 5 1
11 6 10
11 8 15
11 9 6
11 10 13
11 12 7
11 15 8
12 0 16
12 1 19
12 2 13
12 3 19
12 4 10
12 5 5
12 6 15
12 9 14
12 11 6
12 13 5
12 14 20
12 15 8
13 0 20
13 3 10
13 4 5
13 5 8
13 6 5
13 7 10
13 8 7
13 9 14
13 10 3
13 11 2
13 12 11
13 14 16
13 15 14
14 0 19
14 1 10
14 2 10
14 3 4
14 4 15
14 5 14
14 6 19
14 7 10
14 8 15
14 10 3
14 12 7
14 13 12
15 0 9
15 1 5
15 2 14
15 3 9
15 4 20
15 5 18
15 6 19
15 7 17
15 8 1
15 9 1
15 10 6
15 12 5
15 13 19
